c CNF file corresponding to a (partial) station packing problem.
p cnf 2005 229
1 2 3 4 5 6 7 8 9 10 11 12 13 14 0
-1 -2 0
-1 -3 0
-1 -4 0
-1 -5 0
-1 -6 0
-1 -7 0
-1 -8 0
-1 -9 0
-1 -10 0
-1 -11 0
-1 -12 0
-1 -13 0
-1 -14 0
-2 -3 0
-2 -4 0
-2 -5 0
-2 -6 0
-2 -7 0
-2 -8 0
-2 -9 0
-2 -10 0
-2 -11 0
-2 -12 0
-2 -13 0
-2 -14 0
-3 -4 0
-3 -5 0
-3 -6 0
-3 -7 0
-3 -8 0
-3 -9 0
-3 -10 0
-3 -11 0
-3 -12 0
-3 -13 0
-3 -14 0
-4 -5 0
-4 -6 0
-4 -7 0
-4 -8 0
-4 -9 0
-4 -10 0
-4 -11 0
-4 -12 0
-4 -13 0
-4 -14 0
-5 -6 0
-5 -7 0
-5 -8 0
-5 -9 0
-5 -10 0
-5 -11 0
-5 -12 0
-5 -13 0
-5 -14 0
-6 -7 0
-6 -8 0
-6 -9 0
-6 -10 0
-6 -11 0
-6 -12 0
-6 -13 0
-6 -14 0
-7 -8 0
-7 -9 0
-7 -10 0
-7 -11 0
-7 -12 0
-7 -13 0
-7 -14 0
-8 -9 0
-8 -10 0
-8 -11 0
-8 -12 0
-8 -13 0
-8 -14 0
-9 -10 0
-9 -11 0
-9 -12 0
-9 -13 0
-9 -14 0
-10 -11 0
-10 -12 0
-10 -13 0
-10 -14 0
-11 -12 0
-11 -13 0
-11 -14 0
-12 -13 0
-12 -14 0
-13 -14 0
1989 1990 1991 1992 1993 1994 1995 1996 1997 1998 1999 2000 2001 2002 2003 2004 2005 0
-1989 -1990 0
-1989 -1991 0
-1989 -1992 0
-1989 -1993 0
-1989 -1994 0
-1989 -1995 0
-1989 -1996 0
-1989 -1997 0
-1989 -1998 0
-1989 -1999 0
-1989 -2000 0
-1989 -2001 0
-1989 -2002 0
-1989 -2003 0
-1989 -2004 0
-1989 -2005 0
-1990 -1991 0
-1990 -1992 0
-1990 -1993 0
-1990 -1994 0
-1990 -1995 0
-1990 -1996 0
-1990 -1997 0
-1990 -1998 0
-1990 -1999 0
-1990 -2000 0
-1990 -2001 0
-1990 -2002 0
-1990 -2003 0
-1990 -2004 0
-1990 -2005 0
-1991 -1992 0
-1991 -1993 0
-1991 -1994 0
-1991 -1995 0
-1991 -1996 0
-1991 -1997 0
-1991 -1998 0
-1991 -1999 0
-1991 -2000 0
-1991 -2001 0
-1991 -2002 0
-1991 -2003 0
-1991 -2004 0
-1991 -2005 0
-1992 -1993 0
-1992 -1994 0
-1992 -1995 0
-1992 -1996 0
-1992 -1997 0
-1992 -1998 0
-1992 -1999 0
-1992 -2000 0
-1992 -2001 0
-1992 -2002 0
-1992 -2003 0
-1992 -2004 0
-1992 -2005 0
-1993 -1994 0
-1993 -1995 0
-1993 -1996 0
-1993 -1997 0
-1993 -1998 0
-1993 -1999 0
-1993 -2000 0
-1993 -2001 0
-1993 -2002 0
-1993 -2003 0
-1993 -2004 0
-1993 -2005 0
-1994 -1995 0
-1994 -1996 0
-1994 -1997 0
-1994 -1998 0
-1994 -1999 0
-1994 -2000 0
-1994 -2001 0
-1994 -2002 0
-1994 -2003 0
-1994 -2004 0
-1994 -2005 0
-1995 -1996 0
-1995 -1997 0
-1995 -1998 0
-1995 -1999 0
-1995 -2000 0
-1995 -2001 0
-1995 -2002 0
-1995 -2003 0
-1995 -2004 0
-1995 -2005 0
-1996 -1997 0
-1996 -1998 0
-1996 -1999 0
-1996 -2000 0
-1996 -2001 0
-1996 -2002 0
-1996 -2003 0
-1996 -2004 0
-1996 -2005 0
-1997 -1998 0
-1997 -1999 0
-1997 -2000 0
-1997 -2001 0
-1997 -2002 0
-1997 -2003 0
-1997 -2004 0
-1997 -2005 0
-1998 -1999 0
-1998 -2000 0
-1998 -2001 0
-1998 -2002 0
-1998 -2003 0
-1998 -2004 0
-1998 -2005 0
-1999 -2000 0
-1999 -2001 0
-1999 -2002 0
-1999 -2003 0
-1999 -2004 0
-1999 -2005 0
-2000 -2001 0
-2000 -2002 0
-2000 -2003 0
-2000 -2004 0
-2000 -2005 0
-2001 -2002 0
-2001 -2003 0
-2001 -2004 0
-2001 -2005 0
-2002 -2003 0
-2002 -2004 0
-2002 -2005 0
-2003 -2004 0
-2003 -2005 0
-2004 -2005 0
